\ENCODING=ISO-8859-1
\Problem name: ilog.cplex

Maximize
 obj: 771 x(0)#0 + 509 x(1)#1 + 640 x(2)#2 + 509 x(3)#3 + 641 x(4)#4
      + 626 x(5)#5 + 640 x(6)#6 + 891 x(7)#7 + 960 x(8)#8 + 928 x(9)#9
      + 975 x(10)#10 + 843 x(11)#11 + 654 x(12)#12 + 856 x(13)#13
      + 612 x(14)#14 + 871 x(15)#15 + 731 x(16)#16 + 720 x(17)#17
      + 771 x(18)#18 + 810 x(19)#19 + 1047 x(20)#20 + 713 x(21)#21
      + 574 x(22)#22 + 557 x(23)#23 + 697 x(24)#24 + 660 x(25)#25
      + 812 x(26)#26 + 384 x(27)#27 + 714 x(28)#28 + 967 x(29)#29
      + 761 x(30)#30 + 722 x(31)#31 + 1026 x(32)#32 + 850 x(33)#33
      + 1077 x(34)#34 + 627 x(35)#35 + 729 x(36)#36 + 511 x(37)#37
      + 929 x(38)#38 + 561 x(39)#39 + 966 x(40)#40 + 310 x(41)#41
      + 1086 x(42)#42 + 832 x(43)#43 + 700 x(44)#44 + 564 x(45)#45
      + 602 x(46)#46 + 1046 x(47)#47 + 854 x(48)#48 + 489 x(49)#49
      + 505 x(50)#50 + 577 x(51)#51 + 608 x(52)#52 + 445 x(53)#53
      + 747 x(54)#54 + 791 x(55)#55 + 543 x(56)#56 + 403 x(57)#57
      + 703 x(58)#58 + 914 x(59)#59 + 836 x(60)#60 + 925 x(61)#61
      + 437 x(62)#62 + 542 x(63)#63 + 1158 x(64)#64 + 691 x(65)#65
      + 849 x(66)#66 + 927 x(67)#67 + 903 x(68)#68 + 864 x(69)#69
      + 669 x(70)#70 + 724 x(71)#71 + 720 x(72)#72 + 570 x(73)#73
      + 840 x(74)#74 + 358 x(75)#75 + 565 x(76)#76 + 639 x(77)#77
      + 658 x(78)#78 + 851 x(79)#79 + 639 x(80)#80 + 492 x(81)#81
      + 749 x(82)#82 + 761 x(83)#83 + 682 x(84)#84 + 740 x(85)#85
      + 779 x(86)#86 + 601 x(87)#87 + 668 x(88)#88 + 866 x(89)#89
      + 645 x(90)#90 + 550 x(91)#91 + 967 x(92)#92 + 890 x(93)#93
      + 707 x(94)#94 + 804 x(95)#95 + 822 x(96)#96 + 475 x(97)#97
      + 353 x(98)#98 + 830 x(99)#99
Subject To
 c1: 563 x(0)#0 + 659 x(1)#1 + 144 x(2)#2 + 345 x(3)#3 + 188 x(4)#4
     + 345 x(5)#5 + 585 x(6)#6 + 400 x(7)#7 + 396 x(8)#8 + 425 x(9)#9
     + 393 x(10)#10 + 392 x(11)#11 + 864 x(12)#12 + 460 x(13)#13 + 874 x(14)#14
     + 949 x(15)#15 + 969 x(16)#16 + 774 x(17)#17 + 106 x(18)#18 + 198 x(19)#19
     + 987 x(20)#20 + 234 x(21)#21 + 770 x(22)#22 + 870 x(23)#23 + 933 x(24)#24
     + 599 x(25)#25 + 866 x(26)#26 + 512 x(27)#27 + 99 x(28)#28 + 848 x(29)#29
     + 350 x(30)#30 + 244 x(31)#31 + 965 x(32)#32 + 388 x(33)#33 + 217 x(34)#34
     + 915 x(35)#35 + 669 x(36)#36 + 314 x(37)#37 + 915 x(38)#38 + 492 x(39)#39
     + 739 x(40)#40 + 58 x(41)#41 + 628 x(42)#42 + 444 x(43)#43 + 632 x(44)#44
     + 475 x(45)#45 + 598 x(46)#46 + 752 x(47)#47 + 493 x(48)#48 + 928 x(49)#49
     + 52 x(50)#50 + 114 x(51)#51 + 58 x(52)#52 + 106 x(53)#53 + 876 x(54)#54
     + 165 x(55)#55 + 645 x(56)#56 + 133 x(57)#57 + 86 x(58)#58 + 881 x(59)#59
     + 640 x(60)#60 + 18 x(61)#61 + 449 x(62)#62 + 596 x(63)#63 + 705 x(64)#64
     + 702 x(65)#65 + 714 x(66)#66 + 743 x(67)#67 + 960 x(68)#68 + 663 x(69)#69
     + 476 x(70)#70 + 804 x(71)#71 + 554 x(72)#72 + 482 x(73)#73 + 974 x(74)#74
     + 672 x(75)#75 + 464 x(76)#76 + 357 x(77)#77 + 111 x(78)#78 + 284 x(79)#79
     + 775 x(80)#80 + 25 x(81)#81 + 506 x(82)#82 + 899 x(83)#83 + 766 x(84)#84
     + 155 x(85)#85 + 785 x(86)#86 + 164 x(87)#87 + 970 x(88)#88 + 846 x(89)#89
     + 563 x(90)#90 + 813 x(91)#91 + 289 x(92)#92 + 874 x(93)#93 + 462 x(94)#94
     + 851 x(95)#95 + 663 x(96)#96 + 667 x(97)#97 + 67 x(98)#98 + 355 x(99)#99
     <= 13486
 c2: 588 x(0)#0 + 89 x(1)#1 + 884 x(2)#2 + 128 x(3)#3 + 202 x(4)#4 + 635 x(5)#5
     + 29 x(6)#6 + 730 x(7)#7 + 968 x(8)#8 + 426 x(9)#9 + 101 x(10)#10
     + 987 x(11)#11 + 624 x(12)#12 + 911 x(13)#13 + 580 x(14)#14 + 306 x(15)#15
     + 536 x(16)#16 + 132 x(17)#17 + 370 x(18)#18 + 691 x(19)#19 + 739 x(20)#20
     + 75 x(21)#21 + 427 x(22)#22 + 500 x(23)#23 + 237 x(24)#24 + 945 x(25)#25
     + 180 x(26)#26 + 256 x(27)#27 + 272 x(28)#28 + 376 x(29)#29 + 836 x(30)#30
     + 657 x(31)#31 + 714 x(32)#32 + 632 x(33)#33 + 730 x(34)#34 + 16 x(35)#35
     + 218 x(36)#36 + 179 x(37)#37 + 523 x(38)#38 + 508 x(39)#39 + 846 x(40)#40
     + 114 x(41)#41 + 536 x(42)#42 + 684 x(43)#43 + 95 x(44)#44 + 698 x(45)#45
     + 977 x(46)#46 + 621 x(47)#47 + 495 x(48)#48 + 670 x(49)#49 + 477 x(50)#50
     + 490 x(51)#51 + 800 x(52)#52 + 116 x(53)#53 + 236 x(54)#54 + 134 x(55)#55
     + 772 x(56)#56 + 567 x(57)#57 + 906 x(58)#58 + 515 x(59)#59 + 516 x(60)#60
     + 656 x(61)#61 + 636 x(62)#62 + 624 x(63)#63 + 897 x(64)#64 + 515 x(65)#65
     + 584 x(66)#66 + 940 x(67)#67 + 299 x(68)#68 + 578 x(69)#69 + 774 x(70)#70
     + 805 x(71)#71 + 277 x(72)#72 + 500 x(73)#73 + 56 x(74)#74 + 191 x(75)#75
     + 333 x(76)#76 + 692 x(77)#77 + 299 x(78)#78 + 206 x(79)#79 + 940 x(80)#80
     + 281 x(81)#81 + 627 x(82)#82 + 993 x(83)#83 + 90 x(84)#84 + 529 x(85)#85
     + 840 x(86)#86 + 516 x(87)#87 + 655 x(88)#88 + 564 x(89)#89 + 154 x(90)#90
     + 20 x(91)#91 + 625 x(92)#92 + 897 x(93)#93 + 981 x(94)#94 + 1000 x(95)#95
     + 633 x(96)#96 + 307 x(97)#97 + 220 x(98)#98 + 61 x(99)#99 <= 12749
 c3: 84 x(0)#0 + 258 x(1)#1 + 463 x(2)#2 + 654 x(3)#3 + 834 x(4)#4 + 545 x(5)#5
     + 277 x(6)#6 + 781 x(7)#7 + 961 x(8)#8 + 531 x(9)#9 + 664 x(10)#10
     + 259 x(11)#11 + 334 x(12)#12 + 589 x(13)#13 + 388 x(14)#14 + 857 x(15)#15
     + 792 x(16)#16 + 905 x(17)#17 + 213 x(18)#18 + 749 x(19)#19 + 277 x(20)#20
     + 31 x(21)#21 + 178 x(22)#22 + 620 x(23)#23 + 690 x(24)#24 + 916 x(25)#25
     + 205 x(26)#26 + 138 x(27)#27 + 355 x(28)#28 + 224 x(29)#29 + 696 x(30)#30
     + 994 x(31)#31 + 302 x(32)#32 + 441 x(33)#33 + 863 x(34)#34 + 229 x(35)#35
     + 959 x(36)#36 + 321 x(37)#37 + 327 x(38)#38 + 108 x(39)#39 + 459 x(40)#40
     + 816 x(41)#41 + 394 x(42)#42 + 518 x(43)#43 + 6 x(44)#44 + 169 x(45)#45
     + 231 x(46)#46 + 425 x(47)#47 + 643 x(48)#48 + 565 x(49)#49 + 460 x(50)#50
     + 9 x(51)#51 + 431 x(52)#52 + 18 x(53)#53 + 443 x(54)#54 + 617 x(55)#55
     + 276 x(56)#56 + 97 x(57)#57 + 238 x(58)#58 + 460 x(59)#59 + 359 x(60)#60
     + 594 x(61)#61 + 738 x(62)#62 + 42 x(63)#63 + 464 x(64)#64 + 80 x(65)#65
     + 836 x(66)#66 + 244 x(67)#67 + 564 x(68)#68 + 548 x(69)#69 + 774 x(70)#70
     + 822 x(71)#71 + 20 x(72)#72 + 410 x(73)#73 + 327 x(74)#74 + 327 x(75)#75
     + 755 x(76)#76 + 870 x(77)#77 + 678 x(78)#78 + 193 x(79)#79 + 163 x(80)#80
     + 92 x(81)#81 + 973 x(82)#82 + 312 x(83)#83 + 380 x(84)#84 + 682 x(85)#85
     + 390 x(86)#86 + 5 x(87)#87 + 273 x(88)#88 + 551 x(89)#89 + 670 x(90)#90
     + 464 x(91)#91 + 643 x(92)#92 + 392 x(93)#93 + 51 x(94)#94 + 200 x(95)#95
     + 98 x(96)#96 + 158 x(97)#97 + 375 x(98)#98 + 714 x(99)#99 <= 11130
 c4: 728 x(0)#0 + 593 x(1)#1 + 698 x(2)#2 + 258 x(3)#3 + 459 x(4)#4
     + 210 x(5)#5 + 433 x(6)#6 + 564 x(7)#7 + 782 x(8)#8 + 795 x(9)#9
     + 920 x(10)#10 + 417 x(11)#11 + 190 x(12)#12 + 104 x(13)#13 + 40 x(14)#14
     + 211 x(15)#15 + 717 x(16)#16 + 602 x(17)#17 + 969 x(18)#18 + 927 x(19)#19
     + 585 x(20)#20 + 191 x(21)#21 + 614 x(22)#22 + 181 x(23)#23 + 842 x(24)#24
     + 11 x(25)#25 + 620 x(26)#26 + 449 x(27)#27 + 53 x(28)#28 + 620 x(29)#29
     + 64 x(30)#30 + 495 x(31)#31 + 627 x(32)#32 + 704 x(33)#33 + 618 x(34)#34
     + 440 x(35)#35 + 73 x(36)#36 + 72 x(37)#37 + 574 x(38)#38 + 719 x(39)#39
     + 918 x(40)#40 + 321 x(41)#41 + 661 x(42)#42 + 506 x(43)#43 + 46 x(44)#44
     + 711 x(45)#45 + 309 x(46)#46 + 864 x(47)#47 + 273 x(48)#48 + 160 x(49)#49
     + 805 x(50)#50 + 287 x(51)#51 + 435 x(52)#52 + 888 x(53)#53 + 311 x(54)#54
     + 251 x(55)#55 + 289 x(56)#56 + 650 x(57)#57 + 867 x(58)#58 + 390 x(59)#59
     + 961 x(60)#60 + 978 x(61)#61 + 79 x(62)#62 + 51 x(63)#63 + 446 x(64)#64
     + 707 x(65)#65 + 568 x(66)#66 + 848 x(67)#67 + 941 x(68)#68 + 419 x(69)#69
     + 367 x(70)#70 + 814 x(71)#71 + 699 x(72)#72 + 544 x(73)#73 + 44 x(74)#74
     + 322 x(75)#75 + 371 x(76)#76 + 753 x(77)#77 + 252 x(78)#78 + 969 x(79)#79
     + 281 x(80)#80 + 925 x(81)#81 + 34 x(82)#82 + 910 x(83)#83 + 63 x(84)#84
     + 780 x(85)#85 + 663 x(86)#86 + 387 x(87)#87 + 955 x(88)#88 + 230 x(89)#89
     + 425 x(90)#90 + 152 x(91)#91 + 468 x(92)#92 + 239 x(93)#93 + 956 x(94)#94
     + 78 x(95)#95 + 696 x(96)#96 + 912 x(97)#97 + 787 x(98)#98 + 419 x(99)#99
     <= 12651
 c5: 1000 x(0)#0 + 637 x(1)#1 + 396 x(2)#2 + 715 x(3)#3 + 62 x(4)#4
     + 136 x(5)#5 + 727 x(6)#6 + 187 x(7)#7 + 892 x(8)#8 + 872 x(9)#9
     + 701 x(10)#10 + 61 x(11)#11 + 836 x(12)#12 + 112 x(13)#13 + 768 x(14)#14
     + 538 x(15)#15 + 494 x(16)#16 + 801 x(17)#17 + 327 x(18)#18 + 67 x(19)#19
     + 973 x(20)#20 + 711 x(21)#21 + 670 x(22)#22 + 478 x(23)#23 + 9 x(24)#24
     + 373 x(25)#25 + 823 x(26)#26 + 417 x(27)#27 + 362 x(28)#28 + 904 x(29)#29
     + 722 x(30)#30 + 471 x(31)#31 + 129 x(32)#32 + 907 x(33)#33 + 765 x(34)#34
     + 821 x(35)#35 + 110 x(36)#36 + 184 x(37)#37 + 572 x(38)#38 + 340 x(39)#39
     + 281 x(40)#40 + 202 x(41)#41 + 848 x(42)#42 + 980 x(43)#43 + 738 x(44)#44
     + 282 x(45)#45 + 327 x(46)#46 + 909 x(47)#47 + 303 x(48)#48 + 79 x(49)#49
     + 623 x(50)#50 + 917 x(51)#51 + 649 x(52)#52 + 773 x(53)#53 + 490 x(54)#54
     + 640 x(55)#55 + 101 x(56)#56 + 145 x(57)#57 + 935 x(58)#58 + 211 x(59)#59
     + 59 x(60)#60 + 986 x(61)#61 + 103 x(62)#62 + 854 x(63)#63 + 832 x(64)#64
     + 376 x(65)#65 + 706 x(66)#66 + 677 x(67)#67 + 580 x(68)#68 + 121 x(69)#69
     + 189 x(70)#70 + 13 x(71)#71 + 67 x(72)#72 + 607 x(73)#73 + 477 x(74)#74
     + 175 x(75)#75 + 724 x(76)#76 + 411 x(77)#77 + 543 x(78)#78 + 910 x(79)#79
     + 619 x(80)#80 + 312 x(81)#81 + 695 x(82)#82 + 328 x(83)#83 + 455 x(84)#84
     + 671 x(85)#85 + 213 x(86)#86 + 526 x(87)#87 + 282 x(88)#88 + 590 x(89)#89
     + 606 x(90)#90 + 908 x(91)#91 + 340 x(92)#92 + 40 x(93)#93 + 560 x(94)#94
     + 567 x(95)#95 + 94 x(96)#96 + 218 x(97)#97 + 43 x(98)#98 + 825 x(99)#99
     <= 12451
Bounds
 0 <= x(0)#0 <= 1
 0 <= x(1)#1 <= 1
 0 <= x(2)#2 <= 1
 0 <= x(3)#3 <= 1
 0 <= x(4)#4 <= 1
 0 <= x(5)#5 <= 1
 0 <= x(6)#6 <= 1
 0 <= x(7)#7 <= 1
 0 <= x(8)#8 <= 1
 0 <= x(9)#9 <= 1
 0 <= x(10)#10 <= 1
 0 <= x(11)#11 <= 1
 0 <= x(12)#12 <= 1
 0 <= x(13)#13 <= 1
 0 <= x(14)#14 <= 1
 0 <= x(15)#15 <= 1
 0 <= x(16)#16 <= 1
 0 <= x(17)#17 <= 1
 0 <= x(18)#18 <= 1
 0 <= x(19)#19 <= 1
 0 <= x(20)#20 <= 1
 0 <= x(21)#21 <= 1
 0 <= x(22)#22 <= 1
 0 <= x(23)#23 <= 1
 0 <= x(24)#24 <= 1
 0 <= x(25)#25 <= 1
 0 <= x(26)#26 <= 1
 0 <= x(27)#27 <= 1
 0 <= x(28)#28 <= 1
 0 <= x(29)#29 <= 1
 0 <= x(30)#30 <= 1
 0 <= x(31)#31 <= 1
 0 <= x(32)#32 <= 1
 0 <= x(33)#33 <= 1
 0 <= x(34)#34 <= 1
 0 <= x(35)#35 <= 1
 0 <= x(36)#36 <= 1
 0 <= x(37)#37 <= 1
 0 <= x(38)#38 <= 1
 0 <= x(39)#39 <= 1
 0 <= x(40)#40 <= 1
 0 <= x(41)#41 <= 1
 0 <= x(42)#42 <= 1
 0 <= x(43)#43 <= 1
 0 <= x(44)#44 <= 1
 0 <= x(45)#45 <= 1
 0 <= x(46)#46 <= 1
 0 <= x(47)#47 <= 1
 0 <= x(48)#48 <= 1
 0 <= x(49)#49 <= 1
 0 <= x(50)#50 <= 1
 0 <= x(51)#51 <= 1
 0 <= x(52)#52 <= 1
 0 <= x(53)#53 <= 1
 0 <= x(54)#54 <= 1
 0 <= x(55)#55 <= 1
 0 <= x(56)#56 <= 1
 0 <= x(57)#57 <= 1
 0 <= x(58)#58 <= 1
 0 <= x(59)#59 <= 1
 0 <= x(60)#60 <= 1
 0 <= x(61)#61 <= 1
 0 <= x(62)#62 <= 1
 0 <= x(63)#63 <= 1
 0 <= x(64)#64 <= 1
 0 <= x(65)#65 <= 1
 0 <= x(66)#66 <= 1
 0 <= x(67)#67 <= 1
 0 <= x(68)#68 <= 1
 0 <= x(69)#69 <= 1
 0 <= x(70)#70 <= 1
 0 <= x(71)#71 <= 1
 0 <= x(72)#72 <= 1
 0 <= x(73)#73 <= 1
 0 <= x(74)#74 <= 1
 0 <= x(75)#75 <= 1
 0 <= x(76)#76 <= 1
 0 <= x(77)#77 <= 1
 0 <= x(78)#78 <= 1
 0 <= x(79)#79 <= 1
 0 <= x(80)#80 <= 1
 0 <= x(81)#81 <= 1
 0 <= x(82)#82 <= 1
 0 <= x(83)#83 <= 1
 0 <= x(84)#84 <= 1
 0 <= x(85)#85 <= 1
 0 <= x(86)#86 <= 1
 0 <= x(87)#87 <= 1
 0 <= x(88)#88 <= 1
 0 <= x(89)#89 <= 1
 0 <= x(90)#90 <= 1
 0 <= x(91)#91 <= 1
 0 <= x(92)#92 <= 1
 0 <= x(93)#93 <= 1
 0 <= x(94)#94 <= 1
 0 <= x(95)#95 <= 1
 0 <= x(96)#96 <= 1
 0 <= x(97)#97 <= 1
 0 <= x(98)#98 <= 1
 0 <= x(99)#99 <= 1
Generals
 x(0)#0  x(1)#1  x(2)#2  x(3)#3  x(4)#4  x(5)#5  x(6)#6  x(7)#7  x(8)#8 
 x(9)#9  x(10)#10  x(11)#11  x(12)#12  x(13)#13  x(14)#14  x(15)#15  x(16)#16 
 x(17)#17  x(18)#18  x(19)#19  x(20)#20  x(21)#21  x(22)#22  x(23)#23 
 x(24)#24  x(25)#25  x(26)#26  x(27)#27  x(28)#28  x(29)#29  x(30)#30 
 x(31)#31  x(32)#32  x(33)#33  x(34)#34  x(35)#35  x(36)#36  x(37)#37 
 x(38)#38  x(39)#39  x(40)#40  x(41)#41  x(42)#42  x(43)#43  x(44)#44 
 x(45)#45  x(46)#46  x(47)#47  x(48)#48  x(49)#49  x(50)#50  x(51)#51 
 x(52)#52  x(53)#53  x(54)#54  x(55)#55  x(56)#56  x(57)#57  x(58)#58 
 x(59)#59  x(60)#60  x(61)#61  x(62)#62  x(63)#63  x(64)#64  x(65)#65 
 x(66)#66  x(67)#67  x(68)#68  x(69)#69  x(70)#70  x(71)#71  x(72)#72 
 x(73)#73  x(74)#74  x(75)#75  x(76)#76  x(77)#77  x(78)#78  x(79)#79 
 x(80)#80  x(81)#81  x(82)#82  x(83)#83  x(84)#84  x(85)#85  x(86)#86 
 x(87)#87  x(88)#88  x(89)#89  x(90)#90  x(91)#91  x(92)#92  x(93)#93 
 x(94)#94  x(95)#95  x(96)#96  x(97)#97  x(98)#98  x(99)#99 
End
